
   AbsCon 1.41 (January, 2014) - defaultConfiguration

   
   instance
        framework=CSP  name=Isomorphism-/cluster/gpg/ciaran/sip-benchmarks/benchmarks/meshes-CVIU11/patterns/pattern3-/cluster/gpg/ciaran/sip-benchmarks/benchmarks/meshes-CVIU11/targets/target98
        parameters=/cluster/gpg/ciaran/sip-benchmarks/benchmarks/meshes-CVIU11/patterns/pattern3,/cluster/gpg/ciaran/sip-benchmarks/benchmarks/meshes-CVIU11/targets/target98
      

   loading variables...
        nbVariables=163  nbDomainTypes=1  nbTotalValues=715407  domainSizes=(4389:163)
          =>  wckTime=0.459  cpuTime=0.42  mem=169M636

   loading objectives...

   loading constraints...
        nbConstraints=290  nbSpecificConstraints=1  nbExtensionStructures=(2,shared:287)  nbConflictsStructures=(1,shared:287,unbuilt:2)
        degrees=(2:14)(3:29)(4:105)...(6:1)(7:1)(132:1)  arities=(1:1)(2:288)(163:1)  types=(AllDifferent:1)(ConstraintHardExtensionV-Bits:288)(ConstraintHardExtensionV-Table:1)
        tables=(1:1)  nbTotalTuples=1
          =>  wckTime=0.884  cpuTime=0.796  mem=219M755

   INFO : <!-- Start saving the XML representation -->

   INFO : <!-- Stop saving the XML representation of target98.xml -->

   Solver SolverBacktrack being built... 

   INFO : Stop creating residues for RevisionManagerBitRm
          =>  wckTime=4.672  cpuTime=4.437  mem=1652M324

   
   search
        run=0  nbConstraintChecks=4388  depth=(min:0,max:0,avg:1)  nbEffectivePropagations=337  nbRevisions=603  nbUselessRevisions=298
        nbAssignments=2  nbFailedAssignments=2  nbBacktracks=1  nbVisitedNodes=4  nbRestartNogoods=0
          =>  wckTime=3.269  cpuTime=7.432  mem=826M496

   
   global
        nbConstraintChecks=4388  nbEffectivePropagations=337  nbRevisions=603  nbUselessRevisions=298  nbRestartNogoods=0  solvingWckTime=3.269
        expiredTime=no  totalExploration=yes  nbFoundSolutions=0  Stop=FULL_EXPLORATION
          =>  wckTime=7.942  cpuTime=7.433  mem=826M496

s UNSATISFIABLE
d NODES 2

   totalWckTime=7.774  totalCpuTime=7.444
